RAW/XX/fspd-mid/X-n101-k25.vrp_seed-4.out
19781	10.969	149.841
